# Solution for model r10_t18_m7_6
# Finished Task: 16 / 18
# Makespan: 466.0, Total Distance: 193.0, Total Time: 3.7215
# R O S F
0 0 24 0.0 0.0
1 1 26 0.0 0.0
2 2 22 5.0 5.0
3 3 10 0.0 0.0
4 4 -1 0.0 0.0
5 5 23 0.0 0.0
6 6 17 0.0 0.0
7 7 13 0.0 0.0
8 8 15 0.0 0.0
9 9 18 0.0 0.0
10 3 25 98.0 132.0
11 5 -1 438.0 466.0
12 -1 -1 437.0 466.0
13 7 -1 437.0 466.0
14 0 -1 399.0 438.0
15 8 27 340.0 364.0
16 -1 -1 399.0 437.0
17 6 21 347.0 371.0
18 9 -1 280.0 305.0
19 2 -1 319.0 340.0
20 0 14 353.0 389.0
21 6 -1 371.0 399.0
22 2 19 44.0 81.0
23 5 11 358.0 391.0
24 0 20 307.0 345.0
25 3 -1 429.0 466.0
26 1 -1 49.0 85.0
27 8 -1 428.0 466.0
